(set-option :print-success false)
(set-logic QF_UF)
(declare-sort x503 0)
(declare-sort x256 0)
(declare-sort x409 0)
(declare-sort x710 0)
(declare-sort x455 0)
(declare-sort x763 0)
(declare-fun x566 () Bool)
(declare-fun x584 () x256)
(declare-fun x758 () x763)
(declare-fun x556 () x503)
(declare-fun x551 () Bool)
(declare-fun x335 () Bool)
(declare-fun x65 () x409)
(declare-fun x318 () x256)
(declare-fun x419 () x503)
(declare-fun x125 () x256)
(declare-fun x437 () x256)
(declare-fun x21 () x503)
(declare-fun x336 () x503)
(declare-fun x302 () x503)
(declare-fun x558 () x763)
(declare-fun x424 () x503)
(declare-fun x99 () x256)
(declare-fun x163 () x503)
(declare-fun x690 () Bool)
(declare-fun x694 () x503)
(declare-fun x511 () x455)
(declare-fun x765 () x503)
(declare-fun x334 () x256)
(declare-fun x107 () x503)
(declare-fun x88 () x503)
(declare-fun x61 () Bool)
(declare-fun x150 () x503)
(declare-fun x565 () x256)
(declare-fun x145 () x503)
(declare-fun x474 () Bool)
(declare-fun x577 () Bool)
(declare-fun x597 () x256)
(declare-fun x627 () Bool)
(declare-fun x518 () Bool)
(declare-fun x444 () x503)
(declare-fun x593 () x503)
(declare-fun x645 () Bool)
(declare-fun x747 () Bool)
(declare-fun x638 () Bool)
(declare-fun x656 () x256)
(declare-fun x709 () x256)
(declare-fun x345 () x503)
(declare-fun x184 () Bool)
(declare-fun x780 () x256)
(declare-fun x545 () x256)
(declare-fun x217 (x503 x503) Bool)
(declare-fun x370 () x763)
(declare-fun x406 () x503)
(declare-fun x76 (x763) x503)
(declare-fun x281 () Bool)
(declare-fun x102 () x503)
(declare-fun x479 () Bool)
(declare-fun x746 () x503)
(declare-fun x316 () x503)
(declare-fun x744 () x503)
(declare-fun x548 () x256)
(declare-fun x619 () Bool)
(declare-fun x653 () Bool)
(declare-fun x669 () Bool)
(declare-fun x467 () Bool)
(declare-fun x341 () x503)
(declare-fun x312 () x256)
(declare-fun x476 () x710)
(declare-fun x274 () x256)
(declare-fun x45 () x256)
(declare-fun x73 () x503)
(declare-fun x728 (x256) Bool)
(declare-fun x522 () x503)
(declare-fun x190 () x503)
(declare-fun x700 () Bool)
(declare-fun x706 () x763)
(declare-fun x682 () x256)
(declare-fun x687 () x503)
(declare-fun x387 () x503)
(declare-fun x662 () x256)
(declare-fun x559 () x256)
(declare-fun x62 () x503)
(declare-fun x221 () x503)
(declare-fun x277 () Bool)
(declare-fun x575 () x503)
(declare-fun x677 () x256)
(declare-fun x633 () x503)
(declare-fun x625 () x256)
(declare-fun x604 () x256)
(declare-fun x748 () x256)
(declare-fun x286 () Bool)
(declare-fun x491 () x503)
(declare-fun x304 () Bool)
(declare-fun x778 (x256 x409) x763)
(declare-fun x240 () x503)
(declare-fun x28 () x503)
(declare-fun x472 () Bool)
(declare-fun x47 () x503)
(declare-fun x488 () x256)
(declare-fun x366 () x503)
(declare-fun x30 () x503)
(declare-fun x66 () x503)
(declare-fun x657 () x503)
(declare-fun x603 () x503)
(declare-fun x10 () x503)
(declare-fun x624 () x503)
(declare-fun x383 (x503 x710) x763)
(declare-fun x615 () Bool)
(declare-fun x133 () x503)
(declare-fun x703 () Bool)
(declare-fun x541 () x503)
(declare-fun x446 () Bool)
(declare-fun x592 () Bool)
(declare-fun x379 () x503)
(declare-fun x16 () x503)
(declare-fun x91 () Bool)
(declare-fun x97 () x503)
(declare-fun x54 () Bool)
(declare-fun x452 () Bool)
(declare-fun x759 () x256)
(declare-fun x25 () Bool)
(declare-fun x152 () x503)
(declare-fun x81 () x256)
(declare-fun x3 () x503)
(declare-fun x242 () x503)
(declare-fun x767 () x503)
(declare-fun x738 () x256)
(declare-fun x338 () x503)
(declare-fun x639 () Bool)
(declare-fun x195 () x503)
(declare-fun x249 () Bool)
(declare-fun x346 () x256)
(declare-fun x729 () Bool)
(declare-fun x486 () Bool)
(declare-fun x611 () x503)
(declare-fun x741 () x503)
(declare-fun x397 () x256)
(declare-fun x428 () x763)
(declare-fun x466 () x256)
(declare-fun x544 () x503)
(declare-fun x173 () x256)
(declare-fun x374 () x503)
(declare-fun x745 () x503)
(declare-fun x105 () x503)
(declare-fun x174 () x503)
(declare-fun x516 () Bool)
(declare-fun x12 () Bool)
(declare-fun x742 () Bool)
(declare-fun x297 () x503)
(declare-fun x606 () Bool)
(declare-fun x648 () x256)
(declare-fun x475 () x503)
(declare-fun x549 () x503)
(declare-fun x201 () Bool)
(declare-fun x504 () x763)
(declare-fun x631 () x503)
(declare-fun x219 () x503)
(declare-fun x769 () x256)
(declare-fun x309 () x503)
(declare-fun x581 () x503)
(declare-fun x723 () x503)
(declare-fun x282 () x503)
(declare-fun x405 () x503)
(declare-fun x717 () x503)
(declare-fun x11 () Bool)
(declare-fun x421 () x503)
(declare-fun x683 () x503)
(declare-fun x307 () x503)
(declare-fun x162 () x503)
(declare-fun x9 () x503)
(declare-fun x532 () x503)
(declare-fun x431 () x503)
(declare-fun x233 () x503)
(declare-fun x468 () x256)
(declare-fun x126 () x503)
(declare-fun x53 () x256)
(declare-fun x340 () Bool)
(declare-fun x156 () x503)
(declare-fun x182 () x503)
(declare-fun x500 () x503)
(declare-fun x587 () x503)
(declare-fun x131 () x256)
(declare-fun x331 () x503)
(declare-fun x361 () x503)
(declare-fun x74 () Bool)
(declare-fun x588 () x503)
(declare-fun x679 () x503)
(declare-fun x393 () x256)
(declare-fun x232 () Bool)
(declare-fun x602 () x503)
(declare-fun x714 () x503)
(declare-fun x226 () x256)
(declare-fun x655 () x503)
(declare-fun x497 () x503)
(declare-fun x46 () Bool)
(declare-fun x113 () x503)
(declare-fun x678 () x503)
(declare-fun x189 () Bool)
(declare-fun x40 () x503)
(declare-fun x489 () Bool)
(declare-fun x462 () x503)
(declare-fun x554 () Bool)
(declare-fun x650 () x503)
(declare-fun x5 () x503)
(declare-fun x2 () x763)
(declare-fun x247 () Bool)
(declare-fun x237 () x503)
(declare-fun x215 () Bool)
(declare-fun x492 () x503)
(declare-fun x515 () x256)
(declare-fun x164 () Bool)
(declare-fun x64 () x503)
(declare-fun x6 () x503)
(declare-fun x225 () x763)
(declare-fun x451 (x763) x503)
(declare-fun x203 () Bool)
(declare-fun x323 () Bool)
(declare-fun x457 () Bool)
(declare-fun x718 () x503)
(declare-fun x265 () x763)
(declare-fun x693 () Bool)
(declare-fun x208 () x503)
(declare-fun x622 () Bool)
(declare-fun x666 () x503)
(declare-fun x48 () x503)
(declare-fun x395 () x256)
(declare-fun x571 () x256)
(declare-fun x132 () x503)
(declare-fun x20 () Bool)
(declare-fun x390 () x503)
(declare-fun x120 () Bool)
(declare-fun x649 () Bool)
(declare-fun x329 () x503)
(declare-fun x691 () Bool)
(declare-fun x481 () x256)
(declare-fun x111 () x256)
(declare-fun x60 () x503)
(declare-fun x755 () x503)
(declare-fun x236 () Bool)
(declare-fun x680 () x503)
(declare-fun x702 () x763)
(declare-fun x270 () x503)
(declare-fun x165 () x503)
(declare-fun x436 () x503)
(declare-fun x67 () x503)
(declare-fun x246 () x503)
(declare-fun x371 (x763 x763) x763)
(declare-fun x411 () x503)
(declare-fun x288 () x503)
(declare-fun x499 () Bool)
(declare-fun x68 () x503)
(declare-fun x699 () x503)
(declare-fun x87 () x256)
(declare-fun x513 () x256)
(declare-fun x35 () x503)
(declare-fun x445 () x256)
(declare-fun x207 () x503)
(declare-fun x737 () Bool)
(declare-fun x75 () x503)
(declare-fun x762 () x256)
(declare-fun x280 () x256)
(declare-fun x396 () x503)
(declare-fun x730 () Bool)
(declare-fun x85 () Bool)
(declare-fun x213 () x503)
(declare-fun x568 () x503)
(declare-fun x668 () x256)
(declare-fun x134 () x763)
(declare-fun x271 () x503)
(declare-fun x753 () x256)
(declare-fun x695 () x256)
(declare-fun x505 () x503)
(declare-fun x772 () x503)
(declare-fun x308 () Bool)
(declare-fun x724 () x763)
(declare-fun x708 () x503)
(declare-fun x363 () Bool)
(declare-fun x590 () x503)
(declare-fun x399 () Bool)
(declare-fun x89 () x503)
(declare-fun x453 () Bool)
(declare-fun x739 () Bool)
(declare-fun x530 () x503)
(declare-fun x675 () x503)
(declare-fun x635 () x503)
(declare-fun x473 () x256)
(declare-fun x757 () x503)
(declare-fun x442 () x503)
(declare-fun x659 () x503)
(declare-fun x736 () Bool)
(declare-fun x37 () x503)
(declare-fun x601 () Bool)
(declare-fun x157 () x256)
(declare-fun x344 () x256)
(declare-fun x502 () x503)
(declare-fun x15 () x256)
(declare-fun x322 () x503)
(declare-fun x171 () x503)
(declare-fun x386 () x256)
(declare-fun x715 () x256)
(declare-fun x253 () x503)
(declare-fun x685 () x503)
(declare-fun x169 () Bool)
(declare-fun x161 () x256)
(declare-fun x670 () x503)
(declare-fun x580 () Bool)
(declare-fun x382 () x503)
(declare-fun x764 () x256)
(declare-fun x701 () x503)
(declare-fun x536 () x763)
(declare-fun x166 () x503)
(declare-fun x142 () x256)
(declare-fun x526 () x256)
(declare-fun x591 () Bool)
(declare-fun x514 () Bool)
(declare-fun x101 () Bool)
(declare-fun x519 () x503)
(declare-fun x696 () x503)
(declare-fun x167 () x503)
(declare-fun x454 () x763)
(declare-fun x206 () x256)
(declare-fun x380 () x256)
(declare-fun x24 () Bool)
(declare-fun x493 () x503)
(declare-fun x284 () x503)
(declare-fun x202 () Bool)
(declare-fun x149 () x256)
(declare-fun x425 () x503)
(declare-fun x300 () x763)
(declare-fun x32 () x503)
(declare-fun x560 () x503)
(declare-fun x539 () x503)
(declare-fun x90 () x503)
(declare-fun x58 () x503)
(declare-fun x561 () x503)
(declare-fun x349 () x256)
(declare-fun x268 (x256 x256) Bool)
(declare-fun x267 () x503)
(declare-fun x193 () x256)
(declare-fun x449 () x256)
(declare-fun x119 () x256)
(declare-fun x333 () x503)
(declare-fun x426 () x503)
(declare-fun x343 () Bool)
(declare-fun x92 () x503)
(declare-fun x438 () x503)
(declare-fun x579 () x256)
(declare-fun x14 () x503)
(declare-fun x434 () x503)
(declare-fun x258 () Bool)
(declare-fun x773 () x503)
(declare-fun x749 () Bool)
(declare-fun x586 () Bool)
(declare-fun x159 () x503)
(declare-fun x408 () x256)
(declare-fun x692 () x503)
(declare-fun x248 () x503)
(declare-fun x712 () x256)
(declare-fun x199 () x256)
(declare-fun x320 () x503)
(declare-fun x148 () x503)
(declare-fun x214 () x503)
(declare-fun x254 () x503)
(declare-fun x285 () Bool)
(declare-fun x354 () x256)
(declare-fun x547 () x503)
(declare-fun x108 (x256 x256) Bool)
(declare-fun x725 () Bool)
(declare-fun x356 () x256)
(declare-fun x608 () x503)
(declare-fun x1 () Bool)
(declare-fun x117 () x256)
(declare-fun x557 () Bool)
(declare-fun x589 (x503 x503) Bool)
(declare-fun x760 () x503)
(declare-fun x112 () x256)
(declare-fun x252 () Bool)
(declare-fun x605 () x256)
(declare-fun x646 () Bool)
(declare-fun x447 () x256)
(declare-fun x178 () x503)
(declare-fun x198 () x503)
(declare-fun x440 () x503)
(declare-fun x537 () x503)
(declare-fun x181 () x256)
(declare-fun x498 () x256)
(declare-fun x192 () x256)
(declare-fun x22 () x256)
(declare-fun x222 () Bool)
(declare-fun x460 () Bool)
(declare-fun x517 () Bool)
(declare-fun x52 () x503)
(declare-fun x293 () x503)
(declare-fun x641 (x256) Bool)
(declare-fun x600 () x503)
(declare-fun x654 () x503)
(declare-fun x130 () x503)
(declare-fun x607 () x503)
(declare-fun x321 () x503)
(declare-fun x310 () x503)
(declare-fun x283 () x503)
(declare-fun x204 () x256)
(declare-fun x464 () x503)
(declare-fun x417 () Bool)
(declare-fun x660 () x503)
(declare-fun x241 () x503)
(declare-fun x507 () x256)
(declare-fun x239 () x256)
(declare-fun x292 () x503)
(declare-fun x574 () x503)
(declare-fun x562 () x503)
(declare-fun x378 () Bool)
(declare-fun x98 () x503)
(declare-fun x187 () x256)
(declare-fun x223 () Bool)
(declare-fun x110 () x763)
(declare-fun x84 () Bool)
(declare-fun x262 () x503)
(declare-fun x314 () Bool)
(declare-fun x179 () x256)
(declare-fun x144 () x503)
(declare-fun x495 () x503)
(declare-fun x83 () x503)
(declare-fun x212 () x256)
(declare-fun x86 () Bool)
(declare-fun x136 () x763)
(declare-fun x367 () x503)
(declare-fun x8 () Bool)
(declare-fun x432 () x503)
(declare-fun x673 () x256)
(declare-fun x154 () Bool)
(declare-fun x49 () x256)
(declare-fun x23 () x503)
(declare-fun x373 () x256)
(declare-fun x461 () x503)
(declare-fun x294 () x763)
(declare-fun x664 () Bool)
(declare-fun x69 () x256)
(declare-fun x175 () Bool)
(declare-fun x563 () x503)
(declare-fun x630 () x503)
(declare-fun x326 () x503)
(declare-fun x78 () x763)
(declare-fun x415 () x503)
(declare-fun x31 () x503)
(declare-fun x707 () x503)
(declare-fun x183 () x256)
(declare-fun x420 () x503)
(declare-fun x752 () x503)
(declare-fun x704 () x256)
(declare-fun x720 () x503)
(declare-fun x141 () Bool)
(declare-fun x209 () Bool)
(declare-fun x538 (Bool x503) x256)
(declare-fun x487 () Bool)
(declare-fun x485 () Bool)
(declare-fun x311 () x256)
(declare-fun x364 () x256)
(declare-fun x128 () Bool)
(declare-fun x585 () Bool)
(declare-fun x324 () x503)
(declare-fun x733 () x256)
(declare-fun x273 () x503)
(declare-fun x38 () x503)
(declare-fun x351 () x256)
(declare-fun x524 () x503)
(declare-fun x127 () x503)
(declare-fun x412 () x503)
(declare-fun x448 () x763)
(declare-fun x463 () x503)
(declare-fun x220 () Bool)
(declare-fun x599 () x503)
(declare-fun x610 () x503)
(declare-fun x521 () x256)
(declare-fun x697 () x503)
(declare-fun x303 () x503)
(declare-fun x55 () Bool)
(declare-fun x456 () x503)
(declare-fun x490 () x503)
(declare-fun x352 () x503)
(declare-fun x353 () x763)
(declare-fun x186 () x503)
(declare-fun x552 () Bool)
(declare-fun x100 () x256)
(declare-fun x146 () x503)
(declare-fun x231 () Bool)
(declare-fun x348 () x503)
(declare-fun x305 () x503)
(declare-fun x306 () x503)
(declare-fun x598 () x503)
(declare-fun x774 () x503)
(declare-fun x506 () x503)
(declare-fun x357 () x503)
(declare-fun x636 () Bool)
(declare-fun x106 () x503)
(declare-fun x482 () x503)
(declare-fun x103 () x503)
(declare-fun x731 () x256)
(declare-fun x140 () x503)
(declare-fun x781 () x503)
(declare-fun x123 () x503)
(declare-fun x614 () x503)
(declare-fun x72 () x503)
(declare-fun x385 () Bool)
(declare-fun x244 () x256)
(declare-fun x534 () x503)
(declare-fun x185 () x763)
(declare-fun x197 () x256)
(declare-fun x259 () x256)
(declare-fun x372 () Bool)
(declare-fun x572 () Bool)
(declare-fun x194 () x503)
(declare-fun x34 () x503)
(declare-fun x525 () x503)
(declare-fun x59 () x256)
(declare-fun x569 () x503)
(declare-fun x391 () x503)
(declare-fun x768 () x503)
(declare-fun x264 () Bool)
(declare-fun x644 () x256)
(declare-fun x779 () x503)
(declare-fun x726 (x256) x503)
(declare-fun x337 () Bool)
(declare-fun x523 () x503)
(declare-fun x439 () x763)
(declare-fun x375 () x503)
(declare-fun x299 () Bool)
(declare-fun x272 () x503)
(declare-fun x176 () x256)
(declare-fun x238 () x503)
(declare-fun x229 () x503)
(declare-fun x289 () x256)
(declare-fun x365 () x503)
(declare-fun x594 () Bool)
(declare-fun x362 () x256)
(declare-fun x39 () x503)
(declare-fun x325 () x503)
(declare-fun x483 () x503)
(declare-fun x279 () x256)
(declare-fun x243 () x503)
(declare-fun x278 () x503)
(declare-fun x27 () x256)
(declare-fun x652 () Bool)
(declare-fun x332 () x256)
(declare-fun x626 () Bool)
(declare-fun x770 () Bool)
(declare-fun x510 () x256)
(declare-fun x177 () Bool)
(declare-fun x377 () x256)
(declare-fun x404 () x256)
(declare-fun x398 () x503)
(declare-fun x77 () x763)
(declare-fun x671 () x503)
(declare-fun x777 () Bool)
(declare-fun x637 () x503)
(declare-fun x740 () x503)
(declare-fun x441 () x503)
(declare-fun x251 () x503)
(declare-fun x623 () x503)
(declare-fun x18 () x503)
(declare-fun x153 () x503)
(declare-fun x381 () Bool)
(declare-fun x339 () x503)
(declare-fun x368 () Bool)
(declare-fun x576 () x503)
(declare-fun x180 () x503)
(declare-fun x640 () x503)
(declare-fun x290 () Bool)
(declare-fun x227 () Bool)
(declare-fun x118 () Bool)
(declare-fun x260 () Bool)
(declare-fun x400 () x256)
(declare-fun x245 () x503)
(declare-fun x205 () x256)
(declare-fun x94 () Bool)
(declare-fun x276 () x503)
(declare-fun x250 () x503)
(declare-fun x135 () x763)
(declare-fun x137 () x503)
(declare-fun x296 () x256)
(declare-fun x115 () x503)
(declare-fun x129 () Bool)
(declare-fun x230 () x503)
(declare-fun x95 () x503)
(declare-fun x26 () x503)
(declare-fun x665 () x503)
(declare-fun x756 () x256)
(declare-fun x484 () Bool)
(declare-fun x494 () x503)
(declare-fun x583 () Bool)
(declare-fun x328 () Bool)
(declare-fun x616 () x503)
(declare-fun x168 () x503)
(declare-fun x435 () x256)
(declare-fun x388 () x763)
(declare-fun x298 () Bool)
(declare-fun x122 () x503)
(declare-fun x389 () x503)
(declare-fun x582 () x503)
(declare-fun x121 () Bool)
(declare-fun x44 () Bool)
(declare-fun x540 () x256)
(declare-fun x317 () x763)
(declare-fun x224 () x503)
(declare-fun x596 () x256)
(declare-fun x620 () x256)
(declare-fun x721 () x256)
(declare-fun x418 () x503)
(declare-fun x621 () x503)
(declare-fun x529 () Bool)
(declare-fun x402 () x256)
(declare-fun x719 () Bool)
(declare-fun x705 () x503)
(declare-fun x394 () x503)
(declare-fun x663 () x256)
(declare-fun x93 () x503)
(declare-fun x751 () Bool)
(declare-fun x416 () x503)
(declare-fun x407 () x503)
(declare-fun x459 () Bool)
(declare-fun x443 () x256)
(declare-fun x465 () Bool)
(declare-fun x686 () x503)
(declare-fun x234 () x503)
(declare-fun x480 (Bool x455) x763)
(declare-fun x647 () x503)
(declare-fun x17 () x503)
(declare-fun x392 () Bool)
(declare-fun x658 () x503)
(declare-fun x70 () x503)
(declare-fun x7 () x256)
(declare-fun x643 () x256)
(declare-fun x458 () x503)
(declare-fun x470 () x503)
(declare-fun x384 () Bool)
(declare-fun x761 () x503)
(declare-fun x295 () x503)
(declare-fun x674 () x503)
(declare-fun x651 () x256)
(declare-fun x147 () Bool)
(declare-fun x257 () x503)
(declare-fun x629 () Bool)
(declare-fun x612 () x503)
(declare-fun x508 (x503 Bool) x256)
(declare-fun x401 () x256)
(declare-fun x358 () x503)
(declare-fun x634 () x503)
(declare-fun x743 () x256)
(declare-fun x422 () x256)
(declare-fun x29 () Bool)
(declare-fun x410 () x256)
(declare-fun x555 () x503)
(declare-fun x124 () x503)
(declare-fun x429 () x763)
(declare-fun x776 () x256)
(declare-fun x573 () x503)
(declare-fun x291 () Bool)
(declare-fun x51 () x256)
(declare-fun x471 () x256)
(declare-fun x750 () Bool)
(declare-fun x477 () Bool)
(declare-fun x672 () x256)
(declare-fun x550 () x256)
(declare-fun x50 () x503)
(declare-fun x319 () x503)
(declare-fun x613 () x256)
(declare-fun x79 () Bool)
(declare-fun x342 () x503)
(declare-fun x266 () Bool)
(declare-fun x143 () x256)
(declare-fun x684 () x503)
(declare-fun x469 () Bool)
(declare-fun x287 () x256)
(declare-fun x269 () x503)
(declare-fun x191 () x763)
(declare-fun x196 () x763)
(declare-fun x632 () x503)
(declare-fun x414 () x503)
(declare-fun x578 () x503)
(declare-fun x155 () Bool)
(declare-fun x543 () x256)
(declare-fun x138 () x503)
(declare-fun x41 () x503)
(declare-fun x628 () Bool)
(declare-fun x56 () x503)
(declare-fun x413 () x503)
(declare-fun x667 () x503)
(declare-fun x350 () x503)
(declare-fun x775 () Bool)
(declare-fun x734 () x256)
(declare-fun x609 () x503)
(declare-fun x96 () Bool)
(declare-fun x359 () x763)
(declare-fun x766 () Bool)
(declare-fun x19 () x256)
(declare-fun x200 () Bool)
(declare-fun x403 () Bool)
(declare-fun x211 () x503)
(declare-fun x210 () Bool)
(declare-fun x711 () Bool)
(declare-fun x478 () x256)
(declare-fun x216 () Bool)
(declare-fun x570 () x763)
(declare-fun x771 () x503)
(declare-fun x255 () x503)
(declare-fun x433 () x256)
(declare-fun x330 () x503)
(declare-fun x501 () x503)
(declare-fun x528 () x503)
(declare-fun x36 () x503)
(declare-fun x261 () x503)
(declare-fun x430 () Bool)
(declare-fun x698 () Bool)
(declare-fun x689 () Bool)
(declare-fun x531 () x503)
(declare-fun x661 () x256)
(declare-fun x713 () Bool)
(declare-fun x512 () x256)
(declare-fun x4 (Bool x503 x409) x763)
(declare-fun x114 () x503)
(declare-fun x43 () x503)
(declare-fun x450 () x763)
(declare-fun x263 () x503)
(declare-fun x520 () x503)
(declare-fun x533 () x256)
(declare-fun x218 () x503)
(declare-fun x57 () Bool)
(declare-fun x369 () x503)
(declare-fun x170 () x503)
(declare-fun x139 () x503)
(declare-fun x275 () x256)
(declare-fun x82 () Bool)
(declare-fun x527 () Bool)
(declare-fun x151 () x503)
(declare-fun x355 () x503)
(declare-fun x595 () x503)
(declare-fun x109 () x256)
(declare-fun x42 () x503)
(declare-fun x535 () Bool)
(declare-fun x546 () x763)
(declare-fun x754 () x256)
(declare-fun x676 () x503)
(declare-fun x116 () x503)
(declare-fun x327 () x503)
(declare-fun x33 () x503)
(declare-fun x509 () x503)
(declare-fun x158 () Bool)
(declare-fun x617 () x503)
(declare-fun x80 () Bool)
(declare-fun x423 () x256)
(declare-fun x427 () Bool)
(declare-fun x301 () x503)
(declare-fun x727 () x503)
(declare-fun x553 () Bool)
(declare-fun x360 () x503)
(declare-fun x313 () x503)
(declare-fun x172 () x256)
(declare-fun x315 (x763) x256)
(declare-fun x542 () x503)
(declare-fun x71 () x503)
(declare-fun x688 () Bool)
(declare-fun x618 () x503)
(declare-fun x228 () x503)
(declare-fun x160 () Bool)
(declare-fun x63 () x503)
(declare-fun x564 () x503)
(declare-fun x722 () x503)
(declare-fun x13 () x256)
(declare-fun x347 () x503)
(declare-fun x376 () x763)
(declare-fun x716 () x256)
(declare-fun x681 () x503)
(declare-fun x642 (x763 x763) x763)
(declare-fun x104 () x503)
(declare-fun x567 () x503)
(declare-fun x235 () Bool)
(declare-fun x188 () x256)
(declare-fun x732 () x256)
(declare-fun x735 () x503)
(declare-fun x496 () x503)
(assert (= x305 (ite x535 x610 x391)))
(assert (= x367 (ite x586 x198 x9)))
(assert (= (x451 x135) x502))
(assert (= x124 (ite x691 x667 x60)))
(assert (= x91 (= x614 x520)))
(assert (= (ite x378 x269 x60) x575))
(assert (= x542 (ite x649 x416 x278)))
(assert (= (ite x615 x422 x721) x764))
(assert (= x656 (ite x711 x51 x721)))
(assert (= (ite x615 x126 x60) x284))
(assert (= (ite x1 x60 x720) x434))
(assert (= (ite x467 x587 x60) x336))
(assert (= x254 (ite x691 x245 x60)))
(assert (= (ite x639 x718 x60) x273))
(assert (= (ite x711 x597 x721) x173))
(assert (= (ite x12 x513 x579) x142))
(assert (= (x217 x255 x416) x291))
(assert (= x531 (ite x467 x238 x60)))
(assert (= x181 (ite x86 x49 x533)))
(assert (= x732 (ite x467 x45 x721)))
(assert (= (ite x203 x513 x481) x473))
(assert (= (x480 x164 x511) x196))
(assert (= x660 (ite x1 x60 x744)))
(assert (= x23 (ite x1 x50 x60)))
(assert (= (not (= x300 x450)) x323))
(assert (= (x480 x328 x511) x300))
(assert (= (not x55) x340))
(assert (= (= x501 x338) x277))
(assert (= (and x736 x328) x264))
(assert (= (not x487) x227))
(assert (= x534 (ite x121 x760 x610)))
(assert (= (ite x467 x521 x721) x571))
(assert (= x163 (ite x467 x660 x60)))
(assert (= x202 (x728 x119)))
(assert (= x150 (ite x586 x560 x760)))
(assert (= x45 (ite x1 x721 x712)))
(assert (= (x480 x689 x511) x225))
(assert (= x235 (= x450 x376)))
(assert (= (ite x586 x198 x671) x122))
(assert (= (not (= x119 x69)) x638))
(assert (= (ite x335 x123 x665) x171))
(assert (= x243 (ite x378 x60 x367)))
(assert (= (x778 x119 x65) x134))
(assert (= (ite x467 x692 x60) x369))
(assert (= x18 (ite x730 x295 x60)))
(assert (= x39 (ite x690 x144 x541)))
(assert (= x25 (not (= x376 x191))))
(assert (= (and x381 x669) x304))
(assert (= x470 (ite x747 x36 x658)))
(assert (= x74 (not x384)))
(assert (= (= x680 x151) x403))
(assert (= x233 (ite x691 x618 x60)))
(assert (= x200 (or x594 x235)))
(assert (= (ite x118 x193 x721) x386))
(assert (= (ite x86 x604 x117) x377))
(assert (= x684 (ite x260 x198 x144)))
(assert (= x780 (ite x580 x673 x753)))
(assert (= (and x323 x725) x74))
(assert (= x658 (ite x775 x198 x144)))
(assert (= (or x465 x484) x286))
(assert (= (ite x457 x144 x391) x251))
(assert (= (= x255 x60) x770))
(assert (= x423 (ite x298 x733 x613)))
(assert (= (ite x711 x754 x721) x565))
(assert (= x422 (ite x252 x721 x244)))
(assert (= (ite x457 x144 x416) x519))
(assert (= x497 (ite x691 x421 x60)))
(assert (= x551 (= x416 x60)))
(assert (= (= x721 x119) x452))
(assert (= x469 (not x486)))
(assert (= (ite x653 x206 x764) x468))
(assert (= x1 (and x751 x304)))
(assert (= (ite x86 x29 x693) x232))
(assert (= x749 (= x621 x104)))
(assert (= x354 (ite x639 x721 x513)))
(assert (= x604 (ite x649 x289 x400)))
(assert (= (ite x101 x721 x550) x109))
(assert (= (= x134 x294) x24))
(assert (= x467 (= x312 x349)))
(assert (= x133 (ite x467 x23 x60)))
(assert (= x272 (ite x711 x458 x60)))
(assert (= x250 (ite x639 x524 x391)))
(assert (= x527 (not (= x191 x196))))
(assert (= x506 (ite x101 x5 x60)))
(assert (= (ite x1 x60 x348) x491))
(assert (= x96 (not x154)))
(assert (= x290 (not x477)))
(assert (= x310 (ite x484 x760 x610)))
(assert (= (ite x467 x578 x60) x17))
(assert (= (= x134 x450) x363))
(assert (= x392 (x589 x416 x391)))
(assert (= x689 (not x552)))
(assert (= x194 (ite x1 x495 x137)))
(assert (= (x480 x24 x511) x78))
(assert (= x226 (ite x690 x119 x756)))
(assert (= x772 (ite x649 x198 x374)))
(assert (= (ite x1 x410 x488) x149))
(assert (= x208 (ite x101 x366 x497)))
(assert (= x505 (ite x266 x534 x41)))
(assert (= x773 (ite x586 x316 x37)))
(assert (= x718 (ite x286 x310 x684)))
(assert (= (ite x378 x150 x60) x609))
(assert (= (ite x298 x303 x272) x456))
(assert (= x407 (ite x691 x213 x60)))
(assert (= x586 (or x585 x535)))
(assert (= x585 (= x241 x686)))
(assert (= x206 (ite x653 x362 x721)))
(assert (= x186 (x76 x706)))
(assert (distinct x69 x550 x312 x410 x334 x721 x673 x244))
(assert (= x424 (ite x1 x714 x60)))
(assert (= x385 (= x513 x721)))
(assert (= (= x774 x261) x260))
(assert (= x683 (ite x378 x60 x83)))
(assert (= (x726 x513) x241))
(assert (= (ite x1 x60 x575) x102))
(assert (= (ite x298 x354 x721) x597))
(assert (= (ite x690 x445 x695) x715))
(assert (= x698 (= x593 x330)))
(assert (= x469 (and x452 x202)))
(assert (= x238 (ite x1 x322 x163)))
(assert (= x182 (ite x467 x425 x144)))
(assert (= x460 (and x55 x551 x770 x452 x236 x154 x223 x711 x215 x384 x529 x343 x553 x57 x516 x385 x210 x486 x725 x487 x477 x499)))
(assert (= x322 (ite x467 x412 x60)))
(assert (= (ite x46 x63 x391) x681))
(assert (= (ite x101 x83 x60) x213))
(assert (= (= x721 x197) x627))
(assert (= x535 (= x241 x593)))
(assert (= x293 (ite x335 x32 x610)))
(assert (= (x108 x682 x119) x664))
(assert (= x303 (ite x711 x195 x60)))
(assert (= x400 (ite x467 x571 x513)))
(assert (= (ite x457 x416 x198) x671))
(assert (= x212 (ite x101 x513 x437)))
(assert (= (= x550 x349) x12))
(assert (= x744 (ite x378 x17 x741)))
(assert (= (ite x298 x250 x60) x195))
(assert (= x61 (not x516)))
(assert (= x769 (ite x1 x721 x401)))
(assert (= (x383 x697 x476) x504))
(assert (= x343 (= x60 x198)))
(assert (= x578 (ite x1 x60 x678)))
(assert (= (ite x580 x513 x59) x351))
(assert (= (ite x101 x367 x60) x618))
(assert (= (ite x378 x122 x60) x678))
(assert (= x54 (= x702 x450)))
(assert (= x36 (ite x147 x760 x610)))
(assert (= (ite x639 x187 x119) x643))
(assert (= x747 (or x601 x147)))
(assert (= (ite x252 x255 x284) x635))
(assert (= (ite x86 x253 x73) x727))
(assert (= x77 (x480 x363 x511)))
(assert (= (ite x586 x144 x251) x83))
(assert (= (ite x711 x39 x60) x568))
(assert (= x266 (or x222 x121)))
(assert (= x215 (= x517 x227)))
(assert (= (x217 x255 x391) x20))
(assert (= (ite x711 x408 x721) x733))
(assert (= (ite x101 x407 x28) x40))
(assert (= x80 (and x653 x82)))
(assert (= (ite x298 x273 x60) x576))
(assert (= x37 (ite x457 x198 x144)))
(assert (= (ite x691 x555 x60) x116))
(assert (= x628 (= x774 x186)))
(assert (= x57 (= x60 x610)))
(assert (= (or x691 x580) x335))
(assert (= x711 (= x721 x349)))
(assert (= (ite x711 x280 x721) x393))
(assert (= x697 (x726 x119)))
(assert (= (ite x298 x173 x656) x695))
(assert (= x672 (ite x711 x226 x721)))
(assert (= x376 (x383 x631 x476)))
(assert (= x425 (ite x467 x194 x60)))
(assert (distinct x60 x774 x686 x593))
(assert (= (ite x378 x666 x60) x95))
(assert (= (ite x586 x305 x610) x567))
(assert (= x5 (ite x586 x415 x760)))
(assert (= (ite x46 x550 x349) x193))
(assert (= (ite x1 x60 x683) x218))
(assert (= x249 (not (= x504 x450))))
(assert (= (ite x535 x391 x760) x415))
(assert (= (and x583 x202) x479))
(assert (= (ite x101 x233 x254) x90))
(assert (= x325 (ite x335 x107 x198)))
(assert (= x177 (= x573 x444)))
(assert (= x128 (and x160 x711)))
(assert (= (ite x12 x391 x699) x624))
(assert (= (not x553) x216))
(assert (= (ite x467 x389 x60) x170))
(assert (= x46 (= x78 x450)))
(assert (= (= x410 x349) x580))
(assert (= x682 (x538 false x502)))
(assert (= (ite x12 x119 x672) x605))
(assert (= (ite x378 x170 x336) x348))
(assert (= (ite x457 x391 x198) x9))
(assert (= x614 (ite x86 x31 x229)))
(assert (= (ite x586 x556 x610) x666))
(assert (= (= x60 x330) x736))
(assert (= x524 (ite x711 x576 x60)))
(assert (= x734 (ite x118 x287 x721)))
(assert (= x245 (ite x101 x60 x394)))
(assert (= (ite x298 x393 x443) x756))
(assert (= (ite x580 x198 x207) x107))
(assert (= x50 (ite x586 x442 x610)))
(assert (= x659 (ite x615 x635 x60)))
(assert (= x544 (ite x457 x255 x198)))
(assert (= (ite x467 x102 x60) x283))
(assert (= (ite x335 x328 x453) x693))
(assert (= (ite x86 x47 x293) x573))
(assert (= (ite x1 x60 x243) x670))
(assert (= (ite x101 x60 x714) x667))
(assert (= x608 (ite x653 x255 x659)))
(assert (= (x371 x134 x191) x570))
(assert (= (= x478 x181) x299))
(assert (= x280 (ite x298 x643 x721)))
(assert (= (ite x86 x119 x15) x447))
(assert (= x278 (ite x467 x416 x18)))
(assert (= x709 (ite x653 x473 x721)))
(assert (= (or x736 x698) x690))
(assert (= (ite x736 x513 x550) x445))
(assert (= (= x447 x197) x485))
(assert (= x438 (ite x639 x524 x144)))
(assert (= x484 (= x261 x593)))
(assert (= x517 (and x200 x557)))
(assert (= (not (= x69 x197)) x750))
(assert (= x29 (ite x649 x285 x328)))
(assert (= x295 (ite x368 x610 x144)))
(assert (= x522 (ite x467 x637 x60)))
(assert (= (ite x649 x608 x255) x31))
(assert (= x290 (and x164 x527)))
(assert (= x521 (ite x1 x584 x732)))
(assert (= (ite x691 x40 x60) x307))
(assert (= (ite x467 x670 x60) x741))
(assert (= x401 (ite x378 x410 x721)))
(assert (= (= x391 x60) x499))
(assert (= x3 (ite x586 x144 x494)))
(assert (= x113 (ite x467 x440 x60)))
(assert (= (ite x86 x391 x276) x675))
(assert (= (ite x628 x198 x144) x41))
(assert (= x555 (ite x101 x342 x124)))
(assert (= (or x203 x328) x82))
(assert (= x317 (x642 x134 x191)))
(assert (= x669 (x589 x255 x391)))
(assert (= x714 (ite x586 x561 x760)))
(assert (= x603 (ite x467 x771 x60)))
(assert (= (ite x1 x133 x130) x692))
(assert (= x560 (ite x535 x416 x760)))
(assert (= (ite x691 x761 x60) x366))
(assert (= x126 (ite x252 x60 x505)))
(assert (= (ite x101 x567 x60) x761))
(assert (= (ite x1 x60 x528) x440))
(assert (= (ite x639 x410 x349) x125))
(assert (= x601 (= x595 x686)))
(assert (= (ite x535 x255 x760) x561))
(assert (= x252 (x108 x513 x119)))
(assert (= (x268 x682 x119) x430))
(assert (= (ite x467 x441 x60) x495))
(assert (= (ite x378 x267 x603) x528))
(assert (= x594 (= x196 x450)))
(assert (= x702 (x778 x513 x65)))
(assert (= (x371 x702 x191) x135))
(assert (= x47 (ite x649 x610 x92)))
(assert (= x408 (ite x298 x125 x721)))
(assert (= (ite x649 x144 x182) x390))
(assert (= x158 (= x377 x738)))
(assert (= x595 (x451 x136)))
(assert (= x381 (x268 x584 x119)))
(assert (= x556 (ite x535 x610 x416)))
(assert (= (ite x118 x559 x721) x51))
(assert (= (= x673 x349) x730))
(assert (= (ite x86 x390 x171) x680))
(assert (= x441 (ite x1 x3 x60)))
(assert (= (ite x467 x769 x721) x488))
(assert (= (not x725) x328))
(assert (= (= x60 x760) x223))
(assert x460)
(assert (= x104 (ite x86 x542 x416)))
(assert (= (and x627 x164) x340))
(assert (= (ite x467 x369 x610) x92))
(assert (= (ite x467 x380 x312) x620))
(assert (= x394 (ite x586 x198 x544)))
(assert (= (ite x580 x470 x60) x38))
(assert (= x147 (= x593 x595)))
(assert (= (ite x335 x30 x26) x229))
(assert (= (ite x691 x90 x60) x207))
(assert (= (ite x378 x60 x5) x379))
(assert (= x639 (= x450 x77)))
(assert (= x362 (ite x203 x721 x69)))
(assert (= x236 (and x277 x749 x299 x485 x158 x258 x619 x220 x403 x177 x91)))
(assert (= (or x291 x664) x751))
(assert (= (x451 x317) x261))
(assert (= (= x349 x69) x615))
(assert (= x276 (ite x335 x391 x624)))
(assert (= (x371 x388 x191) x136))
(assert (= x28 (ite x691 x6 x60)))
(assert (= (x642 x702 x191) x706))
(assert (= (ite x1 x60 x95) x389))
(assert (= (ite x736 x349 x69) x663))
(assert (= x96 (and x552 x85)))
(assert (= x42 (ite x12 x505 x60)))
(assert (= (ite x298 x685 x144) x541))
(assert (= x338 (ite x86 x772 x325)))
(assert (= (ite x1 x60 x379) x771))
(assert (= x175 (not (= x191 x504))))
(assert (= (x589 x406 x255) x203))
(assert (= x123 (ite x580 x144 x307)))
(assert (= (or x54 x20) x101))
(assert (= x185 (x480 x202 x511)))
(assert (= x220 (= x190 x675)))
(assert (= (ite x457 x144 x255) x494))
(assert (= x653 (= x349 x244)))
(assert (= x253 (ite x649 x760 x657)))
(assert (= x73 (ite x335 x306 x760)))
(assert (= x699 (ite x711 x398 x60)))
(assert (= x712 (ite x378 x682 x513)))
(assert (= x216 (and x249 x175 x713 x202 x638)))
(assert (= x164 (x728 x197)))
(assert (= x754 (ite x690 x663 x423)))
(assert (distinct x450 x294 x191))
(assert (= (ite x12 x42 x255) x26))
(assert (= (not (= x191 x185)) x583))
(assert (= (and x392 x430) x378))
(assert (= x137 (ite x467 x434 x60)))
(assert (= (ite x711 x386 x721) x613))
(assert (= x661 (x315 x570)))
(assert (= (ite x101 x60 x3) x6))
(assert (= x388 (x4 false x241 x65)))
(assert (= x421 (ite x101 x60 x50)))
(assert (= x720 (ite x378 x283 x211)))
(assert (= x685 (ite x711 x746 x60)))
(assert (= x316 (ite x535 x760 x610)))
(assert (= (x726 x197) x631))
(assert (= (= x686 x186) x222))
(assert (= (ite x1 x60 x609) x496))
(assert (= (ite x467 x149 x721) x380))
(assert (= x465 (= x261 x686)))
(assert (= (ite x118 x681 x60) x458))
(assert (= (x315 x136) x584))
(assert (= (ite x1 x60 x647) x587))
(assert (= (= x60 x413) x529))
(assert (= x746 (ite x298 x438 x60)))
(assert (= x437 (x508 x186 false)))
(assert (= x665 (ite x12 x144 x568)))
(assert (= x557 (= x450 x225)))
(assert (= (ite x711 x715 x721) x579))
(assert (= x342 (ite x691 x506 x60)))
(assert (= (ite x1 x394 x60) x412))
(assert (= x85 (not (= x225 x450))))
(assert (= x267 (ite x467 x496 x60)))
(assert (= (ite x653 x80 x328) x285))
(assert (= x691 (= x349 x334)))
(assert (= x59 (ite x691 x212 x721)))
(assert (= x649 (or x653 x615)))
(assert (= (not (= x244 x119)) x713))
(assert (= (ite x12 x328 x128) x453))
(assert (= x619 (= x727 x490)))
(assert (= (ite x690 x264 x328) x160))
(assert (= (ite x586 x144 x519) x269))
(assert (= (= x241 x774) x457))
(assert (= (ite x335 x351 x142) x117))
(assert (= (ite x1 x98 x113) x637))
(assert (= x118 (= x774 x330)))
(assert (= x368 (x641 x644)))
(assert (= x130 (ite x467 x491 x60)))
(assert (= (or x730 x467 x649) x86))
(assert (= (ite x691 x208 x60) x574))
(assert (= (not (= x197 x244)) x141))
(assert (= x374 (ite x467 x531 x198)))
(assert (= (x315 x317) x187))
(assert (= x647 (ite x378 x60 x567)))
(assert (= (ite x711 x734 x721) x443))
(assert (= (ite x580 x38 x255) x30))
(assert (= (ite x653 x773 x60) x406))
(assert (= x121 (= x593 x186)))
(assert (= x775 (= x595 x774)))
(assert (= (ite x467 x522 x760) x657))
(assert (= (ite x12 x334 x565) x131))
(assert (= (ite x580 x760 x116) x306))
(assert (= x211 (ite x467 x218 x60)))
(assert (= (= x689 x232) x258))
(assert (= (= x330 x686) x298))
(assert (= (ite x46 x661 x119) x287))
(assert (= (ite x467 x424 x60) x98))
(assert (= x32 (ite x580 x610 x574)))
(assert (= (ite x46 x119 x513) x559))
(assert (= x442 (ite x535 x610 x255)))
(assert (= x15 (ite x335 x119 x605)))
(assert (= x753 (ite x691 x109 x721)))
(assert (= x61 (and x737 x750 x164 x141 x25)))
(assert (= x481 (x315 x135)))
(assert (= (ite x649 x468 x620) x49))
(assert (= (not (= x376 x450)) x737))
(assert (= x398 (ite x690 x391 x456)))
(assert (= (ite x653 x709 x513) x289))
(assert (= x479 (not x210)))
(assert (= (ite x335 x780 x131) x533))
(check-sat)
(exit)
